245 5
10 10 10 10 10 

0 0 0 0 0 0 1 2 
0 0 0 0 0 0 5 3 4 6 8 12 
1 0 0 0 1 0 2 11 7 
6 0 0 0 1 0 1 5 
6 0 0 0 2 0 1 7 
3 0 0 0 3 0 1 7 
5 0 0 0 3 0 1 9 
4 0 0 0 4 0 1 9 
8 0 0 0 4 0 1 10 
7 0 0 0 3 0 1 13 
5 0 0 0 2 0 1 13 
5 0 0 0 2 0 1 13 
0 0 0 0 0 0 4 14 26 38 50 
0 0 0 0 0 0 5 15 17 20 21 24 
2 0 1 0 0 0 2 23 16 
3 0 4 0 0 0 1 18 
3 0 5 0 0 0 2 23 22 
10 0 2 0 0 0 1 19 
7 0 2 0 0 0 1 22 
4 0 1 0 0 0 1 23 
7 0 2 0 0 0 1 22 
10 0 1 0 0 0 1 25 
9 0 3 0 0 0 2 25 131 
9 0 4 0 0 0 1 25 
0 0 0 0 0 0 1 62 
0 0 0 0 0 0 3 27 28 30 
3 0 0 0 1 0 3 34 32 29 
2 0 0 0 3 0 2 34 33 
6 0 0 0 4 0 1 31 
1 0 0 0 3 0 1 31 
8 0 0 0 2 0 3 35 33 134 
8 0 0 0 2 0 2 36 35 
1 0 0 0 2 0 1 36 
9 0 0 0 2 0 1 35 
6 0 0 0 5 0 1 37 
7 0 0 0 1 0 1 37 
0 0 0 0 0 0 1 62 
0 0 0 0 0 0 4 39 40 41 43 
2 1 0 0 0 0 1 42 
6 1 0 0 0 0 1 42 
2 4 0 0 0 0 1 42 
7 5 0 0 0 0 3 46 45 44 
7 2 0 0 0 0 2 45 44 
4 1 0 0 0 0 1 47 
9 5 0 0 0 0 1 47 
7 3 0 0 0 0 1 47 
1 2 0 0 0 0 2 48 146 
1 1 0 0 0 0 1 49 
0 0 0 0 0 0 1 62 
0 0 0 0 0 0 4 51 52 59 60 
4 0 1 0 0 0 3 58 57 53 
5 0 3 0 0 0 2 57 55 
7 0 1 0 0 0 1 54 
5 0 1 0 0 0 1 55 
9 0 3 0 0 0 1 56 
1 0 2 0 0 0 1 61 
6 0 3 0 0 0 1 61 
6 0 3 0 0 0 2 61 212 
8 0 5 0 0 0 1 61 
7 0 3 0 0 0 1 61 
0 0 0 0 0 0 1 62 
0 0 0 0 0 0 5 63 75 87 99 111 
0 0 0 0 0 0 4 64 66 70 207 
2 0 0 0 0 1 3 73 67 65 
4 0 0 0 0 3 2 72 68 
9 0 0 0 0 2 2 73 67 
7 0 0 0 0 5 2 72 71 
2 0 0 0 0 3 1 69 
5 0 0 0 0 2 1 71 
7 0 0 0 0 1 1 71 
2 0 0 0 0 1 1 74 
7 0 0 0 0 4 1 74 
7 0 0 0 0 3 1 74 
0 0 0 0 0 0 1 123 
0 0 0 0 0 0 3 76 77 83 
3 1 0 0 0 0 3 82 81 80 
7 4 0 0 0 0 1 78 
7 2 0 0 0 0 3 85 79 216 
9 2 0 0 0 0 1 80 
1 2 0 0 0 0 1 84 
10 3 0 0 0 0 1 85 
9 4 0 0 0 0 1 84 
5 2 0 0 0 0 1 84 
6 2 0 0 0 0 1 86 
8 3 0 0 0 0 1 86 
0 0 0 0 0 0 1 123 
0 0 0 0 0 0 1 88 
6 1 0 0 0 0 1 89 
1 2 0 0 0 0 3 92 91 90 
8 1 0 0 0 0 3 97 95 93 
10 3 0 0 0 0 3 97 94 93 
1 4 0 0 0 0 3 97 94 93 
8 3 0 0 0 0 2 96 118 
5 3 0 0 0 0 1 96 
4 3 0 0 0 0 1 96 
7 1 0 0 0 0 1 98 
3 4 0 0 0 0 1 98 
0 0 0 0 0 0 1 123 
0 0 0 0 0 0 5 100 102 105 106 109 
1 0 1 0 0 0 2 108 101 
5 0 1 0 0 0 1 103 
2 0 3 0 0 0 1 103 
1 0 2 0 0 0 1 104 
3 0 4 0 0 0 1 107 
3 0 2 0 0 0 1 108 
3 0 1 0 0 0 1 107 
2 0 3 0 0 0 2 110 156 
6 0 4 0 0 0 1 110 
1 0 4 0 0 0 1 110 
0 0 0 0 0 0 1 123 
0 0 0 0 0 0 1 112 
6 1 0 0 0 0 3 115 114 113 
5 1 0 0 0 0 2 117 116 
3 2 0 0 0 0 3 117 116 222 
8 1 0 0 0 0 1 116 
8 3 0 0 0 0 2 119 118 
1 3 0 0 0 0 2 119 118 
3 3 0 0 0 0 2 121 120 
4 3 0 0 0 0 2 121 120 
8 5 0 0 0 0 1 122 
8 3 0 0 0 0 1 122 
0 0 0 0 0 0 1 123 
0 0 0 0 0 0 5 124 136 148 160 172 
0 0 0 0 0 0 2 125 127 
7 1 0 0 0 0 1 126 
5 4 0 0 0 0 2 130 128 
9 5 0 0 0 0 2 129 215 
7 2 0 0 0 0 2 132 131 
10 1 0 0 0 0 2 132 131 
3 2 0 0 0 0 2 133 131 
10 2 0 0 0 0 1 134 
9 2 0 0 0 0 1 133 
6 5 0 0 0 0 1 135 
7 1 0 0 0 0 1 135 
0 0 0 0 0 0 1 184 
0 0 0 0 0 0 5 137 144 145 146 165 
9 0 1 0 0 0 3 143 141 138 
2 0 3 0 0 0 1 139 
9 0 2 0 0 0 1 140 
7 0 4 0 0 0 1 142 
8 0 3 0 0 0 1 142 
10 0 4 0 0 0 1 147 
1 0 2 0 0 0 1 147 
2 0 2 0 0 0 1 147 
1 0 3 0 0 0 1 147 
5 0 1 0 0 0 1 147 
0 0 0 0 0 0 1 184 
0 0 0 0 0 0 4 149 153 154 236 
6 0 1 0 0 0 2 156 150 
4 0 2 0 0 0 2 152 151 
3 0 3 0 0 0 2 158 155 
10 0 3 0 0 0 2 158 155 
7 0 4 0 0 0 1 155 
3 0 3 0 0 0 1 155 
8 0 2 0 0 0 1 157 
3 0 1 0 0 0 1 158 
4 0 4 0 0 0 1 159 
4 0 2 0 0 0 1 159 
0 0 0 0 0 0 1 184 
0 0 0 0 0 0 5 161 165 166 169 170 
7 0 0 0 1 0 1 162 
5 0 0 0 3 0 1 163 
4 0 0 0 2 0 1 164 
6 0 0 0 2 0 1 167 
1 0 0 0 3 0 1 168 
7 0 0 0 1 0 1 168 
8 0 0 0 4 0 1 171 
6 0 0 0 1 0 2 171 198 
4 0 0 0 5 0 1 171 
3 0 0 0 3 0 1 171 
0 0 0 0 0 0 1 184 
0 0 0 0 0 0 2 173 175 
7 0 0 1 0 0 2 178 174 
10 0 0 4 0 0 2 177 176 
6 0 0 5 0 0 1 176 
5 0 0 2 0 0 3 182 181 179 
8 0 0 2 0 0 3 182 181 179 
7 0 0 4 0 0 2 181 179 
5 0 0 3 0 0 1 180 
6 0 0 2 0 0 2 183 215 
6 0 0 1 0 0 1 183 
1 0 0 1 0 0 1 183 
0 0 0 0 0 0 1 184 
0 0 0 0 0 0 5 185 197 209 221 233 
0 0 0 0 0 0 4 186 188 194 195 
10 0 0 0 0 1 3 192 187 218 
5 0 0 0 0 2 2 193 189 
10 0 0 0 0 1 2 192 189 
9 0 0 0 0 4 1 190 
5 0 0 0 0 5 1 191 
3 0 0 0 0 4 1 196 
8 0 0 0 0 1 1 196 
1 0 0 0 0 4 1 196 
7 0 0 0 0 2 1 196 
10 0 0 0 0 1 1 196 
0 0 0 0 0 0 1 245 
0 0 0 0 0 0 1 198 
8 0 0 0 0 1 4 204 201 200 199 
3 0 0 0 0 5 3 207 206 202 
10 0 0 0 0 1 2 206 202 
7 0 0 0 0 3 1 202 
8 0 0 0 0 2 1 203 
1 0 0 0 0 5 1 205 
4 0 0 0 0 2 1 205 
5 0 0 0 0 2 2 208 222 
5 0 0 0 0 2 1 208 
2 0 0 0 0 2 1 208 
0 0 0 0 0 0 1 245 
0 0 0 0 0 0 2 210 211 
6 0 0 1 0 0 2 214 212 
7 0 0 3 0 0 3 215 214 213 
6 0 0 4 0 0 2 215 213 
8 0 0 3 0 0 3 219 218 217 
6 0 0 2 0 0 2 218 217 
8 0 0 3 0 0 1 216 
3 0 0 2 0 0 1 217 
7 0 0 2 0 0 2 220 223 
9 0 0 2 0 0 1 220 
8 0 0 3 0 0 1 220 
0 0 0 0 0 0 1 245 
0 0 0 0 0 0 1 222 
6 0 0 0 0 1 2 226 223 
1 0 0 0 0 3 2 225 224 
1 0 0 0 0 1 3 231 230 227 
2 0 0 0 0 2 3 230 228 227 
6 0 0 0 0 2 2 230 227 
1 0 0 0 0 3 2 229 242 
2 0 0 0 0 4 1 229 
3 0 0 0 0 3 1 232 
1 0 0 0 0 4 1 232 
9 0 0 0 0 2 1 232 
0 0 0 0 0 0 1 245 
0 0 0 0 0 0 4 234 236 242 243 
4 0 1 0 0 0 1 235 
6 0 3 0 0 0 2 241 237 
9 0 2 0 0 0 3 241 240 238 
5 0 1 0 0 0 2 240 238 
2 0 2 0 0 0 1 239 
5 0 5 0 0 0 1 244 
1 0 4 0 0 0 1 244 
9 0 2 0 0 0 1 244 
2 0 2 0 0 0 1 244 
2 0 3 0 0 0 1 244 
0 0 0 0 0 0 1 245 
0 0 0 0 0 0 0 
